442265
103,58,44,27,10,59,66,93,89,96,101,37,3,48,57,106,98,88,8,32,54,95,94,6,86,49,18,35,4,26,50,43,74,100,38,84,79,87,1,80,24,15,39,71,73,7,19,78,14,42,97,31,64,85,102,28,60,53,11,75,51,77,22,56,70,83,12,55,29,69,61,52,81,47,72,68,2,9,25,45,99,34,76,91,13,90,21,16,40,20,41,62,82,67,46,17,92,23,5,30,65,105,104,36,33,63